#######################################
### Exact MIP solver for the HHCRSP ###
#######################################
-- Instance file: new-instances/HHCRSP_75_15_47_0.4_C_C.txt
-- Max threads: 4
-- Time limit: 999999 seconds
-- Use initial solution: No
Trivial flow violations prevented generating 18857 variables.
Model exported.
Version identifier: 20.1.0.0 | 2020-11-10 | 9bedb6d68
CPXPARAM_Threads                                 4
CPXPARAM_TimeLimit                               999999
Parallel mode: deterministic, using up to 4 threads for concurrent optimization:
 * Starting dual Simplex on 1 thread...
 * Starting Barrier on 3 threads...
Tried aggregator 1 time.
LP Presolve eliminated 2484 rows and 500 columns.
Reduced LP has 15142 rows, 14611 columns, and 138714 nonzeros.
Presolve time = 0.06 sec. (38.79 ticks)
Symmetry aggregator did 8357 additional substitutions.
Initializing dual steep norms . . .

Iteration log . . .
Iteration:     1   Dual objective     =             1.000000
Iteration:   357   Dual objective     =           153.333333

Dual crossover.
  Dual:  Fixing 136 variables.
      135 DMoves:  Infeasibility  2.84772536e-14  Objective  1.53695300e+02
        0 DMoves:  Infeasibility  1.84297437e-14  Objective  1.53695300e+02
  Dual:  Pushed 21, exchanged 115.
  Primal:  Fixing 52 variables.
       51 PMoves:  Infeasibility  6.66133815e-16  Objective  1.53695300e+02
        0 PMoves:  Infeasibility  7.77156117e-16  Objective  1.53695300e+02
  Primal:  Pushed 35, exchanged 17.

Dual simplex solved model.


Solution status from MIP model:
-- Processing time: 0.145 sec.
-- Memory used: 80.3252 MB
-- Best bound: inf
-- Obj value: 153.695
-- Gap: inf%
-- Total distance: 461.086
-- Total tardiness: 0
-- Largest tardiness: 0
